c Reduced graph for huck_2 generated by Cyril Grelier
p edge 60 271
e 1 2
e 1 3
e 1 4
e 1 5
e 1 6
e 1 7
e 1 8
e 1 9
e 1 10
e 1 11
e 1 12
e 1 13
e 1 14
e 1 15
e 1 16
e 1 17
e 1 19
e 1 20
e 1 21
e 1 22
e 1 23
e 1 24
e 1 25
e 1 26
e 1 27
e 1 28
e 1 29
e 1 30
e 1 31
e 1 32
e 1 33
e 1 34
e 1 35
e 1 36
e 1 37
e 1 38
e 1 39
e 1 40
e 1 44
e 1 45
e 1 46
e 1 47
e 1 50
e 1 51
e 1 53
e 1 58
e 2 3
e 2 4
e 2 5
e 2 6
e 2 7
e 2 8
e 2 10
e 2 15
e 2 18
e 2 22
e 2 24
e 2 25
e 2 26
e 2 27
e 2 28
e 2 29
e 2 30
e 2 31
e 2 44
e 2 45
e 2 52
e 2 54
e 3 4
e 3 8
e 3 10
e 3 15
e 3 18
e 3 22
e 3 24
e 3 25
e 3 26
e 3 27
e 3 28
e 3 29
e 3 30
e 3 31
e 3 44
e 3 48
e 3 49
e 4 8
e 4 10
e 4 15
e 4 18
e 4 22
e 4 24
e 4 25
e 4 26
e 4 27
e 4 28
e 4 29
e 4 30
e 4 31
e 4 44
e 4 48
e 4 49
e 5 6
e 5 7
e 5 9
e 5 10
e 5 11
e 5 12
e 5 13
e 5 14
e 5 16
e 5 17
e 5 19
e 5 21
e 5 45
e 5 46
e 5 47
e 6 7
e 6 9
e 6 10
e 6 11
e 6 12
e 6 13
e 6 14
e 6 16
e 6 17
e 6 19
e 6 21
e 6 45
e 6 46
e 6 47
e 7 9
e 7 10
e 7 20
e 7 23
e 7 32
e 7 41
e 7 42
e 7 43
e 7 45
e 7 46
e 7 47
e 7 50
e 7 51
e 8 15
e 8 18
e 8 24
e 8 26
e 8 27
e 8 28
e 8 29
e 8 30
e 8 31
e 9 10
e 9 20
e 9 23
e 9 32
e 9 41
e 9 42
e 9 43
e 10 23
e 10 45
e 11 12
e 11 13
e 11 14
e 11 16
e 11 17
e 11 19
e 11 21
e 12 13
e 12 14
e 12 16
e 12 17
e 12 19
e 12 21
e 13 14
e 13 16
e 13 17
e 13 19
e 13 21
e 14 16
e 14 17
e 14 19
e 14 21
e 15 22
e 15 24
e 15 27
e 15 29
e 15 31
e 16 17
e 16 19
e 16 21
e 17 19
e 17 21
e 18 25
e 18 26
e 18 28
e 18 30
e 18 48
e 18 49
e 19 21
e 20 23
e 20 32
e 20 41
e 20 42
e 20 43
e 20 50
e 20 51
e 22 25
e 22 26
e 22 28
e 22 30
e 22 44
e 23 32
e 23 41
e 23 42
e 23 43
e 24 27
e 24 29
e 24 31
e 25 44
e 25 48
e 25 49
e 26 28
e 26 30
e 27 29
e 27 31
e 28 30
e 29 31
e 32 41
e 32 42
e 32 43
e 33 34
e 33 35
e 33 36
e 33 37
e 33 38
e 33 39
e 33 40
e 34 35
e 34 36
e 34 37
e 34 38
e 34 39
e 34 40
e 35 36
e 35 37
e 35 38
e 35 39
e 35 40
e 36 37
e 36 38
e 36 39
e 36 40
e 37 38
e 37 39
e 37 40
e 38 39
e 38 40
e 39 40
e 41 42
e 41 43
e 42 43
e 46 47
e 48 49
e 50 51
e 52 54
e 53 58
e 55 56
e 55 57
e 56 57
e 59 60
